# Objective value = 28
WA1n 0
WA1p 0
WA2n 0
WA2p 1
WB1n 0
WB1p 0
WB2n 0
WB2p 1
WC1n 0
WC1p 1
WD1n 0
WD1p 1
WE1n 2
WE1p 0
WE2n 1
WE2p 0
WF1n 2
WF1p 0
WF2n 1
WF2p 0
WG1n 0
WG1p 2
WG2n 0
WG2p 1
WH1n 0
WH1p 2
WH2n 0
WH2p 1
WT1n 0
WT1p 6
5 7
a 0
b 1
c 0
d 1
e 1
f 1
g 0
h 0
i 0
j 0
k 1
l 1
m 1
n 1
o 1
